p tdp 92 91
91 29
54 78
44 31
43 84
8 36
89 46
65 82
21 22
42 91
76 56
16 77
59 1
9 41
43 71
32 60
15 33
31 4
25 38
57 3
19 12
7 73
8 54
37 87
85 51
6 70
51 83
33 18
72 85
51 59
13 31
28 48
45 25
63 10
74 53
24 73
66 41
28 30
40 34
49 1
46 21
16 63
26 52
69 35
5 26
91 70
58 34
29 28
47 19
75 86
57 41
74 15
86 92
68 56
71 45
21 23
52 17
51 62
36 26
2 87
55 56
14 27
35 91
77 54
13 87
88 85
67 53
56 32
79 73
25 29
39 74
67 48
59 20
24 50
86 40
19 8
2 61
80 50
67 90
75 74
55 66
64 22
37 62
26 57
1 38
64 82
32 81
14 75
19 11
12 39
80 31
23 13
